c FILE /home/rafael/Documents/HappySet/MIHS/inputs/happygen/output/graph_random_k2_p0.3_v100_20241127_083555.txt
c SOURCE This is a random graph formed for the happy graph colouring problem.
c DESCRIPTION It was generated using the problem generator of Rhyd Lewis
c
c GRAPH STATS
c Seed                             = -1029352400
c Number of Nodes                  = 100
c Edge probability defined by user = 0.5
c Number of colours k              = 2
c Number of pre-assignments        = 30
c Actual density                   = 0.488283
c 
c The degrees of nodes 1 to 100, respectively, are as follows 
c [62, 61, 60, 58, 57, 57, 57, 57, 56, 55, 55, 55, 55, 54, 54, 54, 53, 53, 53, 53, 53, 53, 53, 53, 52, 52, 
c  52, 52, 52, 51, 51, 51, 51, 51, 50, 50, 50, 50, 50, 50, 50, 50, 49, 49, 49, 49, 49, 49, 49, 49, 49, 
c  49, 48, 48, 48, 47, 47, 47, 47, 47, 47, 47, 46, 46, 46, 46, 46, 46, 46, 46, 45, 45, 45, 45, 45, 44, 
c  44, 44, 44, 44, 44, 44, 43, 43, 42, 42, 42, 42, 42, 41, 41, 40, 40, 39, 39, 38, 38, 38, 37, 37] 
c  
p edge 100 2417 2
e 1 3
e 1 4
e 1 6
e 1 8
e 1 9
e 1 10
e 1 11
e 1 12
e 1 14
e 1 15
e 1 16
e 1 17
e 1 18
e 1 19
e 1 20
e 1 21
e 1 22
e 1 26
e 1 27
e 1 28
e 1 29
e 1 30
e 1 33
e 1 35
e 1 38
e 1 40
e 1 41
e 1 42
e 1 43
e 1 44
e 1 45
e 1 50
e 1 51
e 1 52
e 1 55
e 1 56
e 1 57
e 1 58
e 1 59
e 1 60
e 1 61
e 1 62
e 1 64
e 1 65
e 1 67
e 1 68
e 1 69
e 1 70
e 1 74
e 1 75
e 1 76
e 1 77
e 1 78
e 1 87
e 1 88
e 1 89
e 1 91
e 1 94
e 1 95
e 1 96
e 1 98
e 1 99
e 2 3
e 2 4
e 2 6
e 2 7
e 2 8
e 2 9
e 2 10
e 2 11
e 2 12
e 2 13
e 2 14
e 2 15
e 2 16
e 2 17
e 2 18
e 2 19
e 2 20
e 2 21
e 2 24
e 2 25
e 2 26
e 2 28
e 2 31
e 2 33
e 2 34
e 2 35
e 2 36
e 2 39
e 2 40
e 2 42
e 2 45
e 2 47
e 2 52
e 2 53
e 2 54
e 2 56
e 2 58
e 2 59
e 2 60
e 2 62
e 2 63
e 2 64
e 2 68
e 2 69
e 2 70
e 2 71
e 2 73
e 2 74
e 2 75
e 2 77
e 2 78
e 2 80
e 2 82
e 2 83
e 2 84
e 2 87
e 2 90
e 2 92
e 2 94
e 2 97
e 2 99
e 3 4
e 3 5
e 3 6
e 3 7
e 3 9
e 3 11
e 3 12
e 3 13
e 3 14
e 3 16
e 3 18
e 3 19
e 3 20
e 3 21
e 3 23
e 3 24
e 3 25
e 3 27
e 3 28
e 3 29
e 3 30
e 3 33
e 3 35
e 3 36
e 3 37
e 3 38
e 3 39
e 3 40
e 3 42
e 3 43
e 3 44
e 3 46
e 3 49
e 3 51
e 3 53
e 3 55
e 3 56
e 3 59
e 3 60
e 3 62
e 3 63
e 3 65
e 3 69
e 3 70
e 3 71
e 3 73
e 3 74
e 3 77
e 3 78
e 3 79
e 3 80
e 3 82
e 3 84
e 3 85
e 3 87
e 3 96
e 3 98
e 3 99
e 4 6
e 4 8
e 4 10
e 4 11
e 4 14
e 4 15
e 4 16
e 4 17
e 4 21
e 4 22
e 4 25
e 4 26
e 4 27
e 4 29
e 4 31
e 4 32
e 4 33
e 4 34
e 4 38
e 4 39
e 4 40
e 4 42
e 4 43
e 4 46
e 4 47
e 4 48
e 4 50
e 4 51
e 4 52
e 4 53
e 4 55
e 4 56
e 4 57
e 4 58
e 4 60
e 4 61
e 4 62
e 4 63
e 4 64
e 4 66
e 4 67
e 4 68
e 4 70
e 4 71
e 4 72
e 4 76
e 4 79
e 4 80
e 4 82
e 4 85
e 4 86
e 4 88
e 4 90
e 4 92
e 4 94
e 5 6
e 5 8
e 5 11
e 5 12
e 5 16
e 5 18
e 5 19
e 5 20
e 5 21
e 5 22
e 5 24
e 5 26
e 5 27
e 5 28
e 5 29
e 5 31
e 5 34
e 5 35
e 5 37
e 5 38
e 5 40
e 5 44
e 5 46
e 5 47
e 5 48
e 5 49
e 5 50
e 5 51
e 5 52
e 5 54
e 5 58
e 5 60
e 5 62
e 5 64
e 5 65
e 5 66
e 5 67
e 5 68
e 5 69
e 5 72
e 5 74
e 5 75
e 5 76
e 5 77
e 5 80
e 5 81
e 5 83
e 5 84
e 5 85
e 5 87
e 5 89
e 5 90
e 5 91
e 5 95
e 5 96
e 5 98
e 6 7
e 6 8
e 6 11
e 6 12
e 6 14
e 6 17
e 6 18
e 6 20
e 6 22
e 6 23
e 6 24
e 6 27
e 6 28
e 6 29
e 6 31
e 6 32
e 6 35
e 6 37
e 6 43
e 6 44
e 6 45
e 6 47
e 6 48
e 6 51
e 6 52
e 6 54
e 6 55
e 6 58
e 6 60
e 6 61
e 6 63
e 6 65
e 6 66
e 6 67
e 6 68
e 6 70
e 6 71
e 6 73
e 6 74
e 6 75
e 6 76
e 6 77
e 6 78
e 6 80
e 6 83
e 6 84
e 6 86
e 6 87
e 6 88
e 6 89
e 6 90
e 6 94
e 7 8
e 7 11
e 7 12
e 7 14
e 7 17
e 7 18
e 7 19
e 7 20
e 7 21
e 7 24
e 7 25
e 7 26
e 7 28
e 7 30
e 7 31
e 7 32
e 7 33
e 7 34
e 7 37
e 7 38
e 7 39
e 7 40
e 7 41
e 7 44
e 7 46
e 7 49
e 7 51
e 7 52
e 7 53
e 7 54
e 7 57
e 7 58
e 7 62
e 7 64
e 7 66
e 7 67
e 7 69
e 7 70
e 7 71
e 7 72
e 7 73
e 7 74
e 7 76
e 7 77
e 7 82
e 7 84
e 7 88
e 7 90
e 7 92
e 7 93
e 7 94
e 7 95
e 7 96
e 7 97
e 8 9
e 8 10
e 8 11
e 8 13
e 8 16
e 8 19
e 8 20
e 8 21
e 8 22
e 8 24
e 8 25
e 8 26
e 8 27
e 8 28
e 8 29
e 8 31
e 8 32
e 8 33
e 8 34
e 8 36
e 8 37
e 8 38
e 8 39
e 8 40
e 8 42
e 8 47
e 8 53
e 8 54
e 8 56
e 8 60
e 8 61
e 8 63
e 8 64
e 8 66
e 8 67
e 8 68
e 8 74
e 8 77
e 8 78
e 8 79
e 8 82
e 8 83
e 8 85
e 8 87
e 8 88
e 8 89
e 8 91
e 8 92
e 8 97
e 8 98
e 8 100
e 9 10
e 9 12
e 9 14
e 9 15
e 9 17
e 9 19
e 9 20
e 9 21
e 9 22
e 9 23
e 9 25
e 9 26
e 9 28
e 9 30
e 9 34
e 9 35
e 9 36
e 9 40
e 9 42
e 9 43
e 9 46
e 9 47
e 9 48
e 9 49
e 9 52
e 9 54
e 9 57
e 9 59
e 9 63
e 9 64
e 9 65
e 9 67
e 9 72
e 9 73
e 9 74
e 9 76
e 9 77
e 9 78
e 9 80
e 9 81
e 9 82
e 9 83
e 9 84
e 9 87
e 9 88
e 9 92
e 9 93
e 9 94
e 9 96
e 9 98
e 9 99
e 9 100
e 10 12
e 10 13
e 10 16
e 10 18
e 10 19
e 10 20
e 10 21
e 10 23
e 10 24
e 10 25
e 10 27
e 10 28
e 10 29
e 10 31
e 10 32
e 10 34
e 10 35
e 10 38
e 10 39
e 10 40
e 10 42
e 10 43
e 10 45
e 10 46
e 10 48
e 10 49
e 10 53
e 10 56
e 10 57
e 10 60
e 10 61
e 10 62
e 10 63
e 10 64
e 10 66
e 10 67
e 10 70
e 10 72
e 10 73
e 10 77
e 10 78
e 10 83
e 10 84
e 10 88
e 10 89
e 10 90
e 10 91
e 10 93
e 10 95
e 10 99
e 11 12
e 11 13
e 11 14
e 11 15
e 11 16
e 11 17
e 11 18
e 11 19
e 11 21
e 11 23
e 11 24
e 11 28
e 11 29
e 11 30
e 11 31
e 11 34
e 11 35
e 11 36
e 11 38
e 11 39
e 11 41
e 11 42
e 11 46
e 11 49
e 11 50
e 11 52
e 11 53
e 11 54
e 11 56
e 11 58
e 11 59
e 11 60
e 11 62
e 11 65
e 11 68
e 11 69
e 11 70
e 11 75
e 11 77
e 11 78
e 11 81
e 11 84
e 11 85
e 11 88
e 11 91
e 11 92
e 11 99
e 12 13
e 12 15
e 12 16
e 12 18
e 12 24
e 12 25
e 12 26
e 12 27
e 12 28
e 12 29
e 12 30
e 12 31
e 12 32
e 12 34
e 12 35
e 12 36
e 12 37
e 12 38
e 12 39
e 12 40
e 12 41
e 12 44
e 12 47
e 12 48
e 12 49
e 12 51
e 12 55
e 12 56
e 12 57
e 12 59
e 12 62
e 12 65
e 12 72
e 12 73
e 12 74
e 12 76
e 12 79
e 12 80
e 12 84
e 12 86
e 12 88
e 12 90
e 12 93
e 12 94
e 12 99
e 12 100
e 13 14
e 13 18
e 13 19
e 13 21
e 13 24
e 13 25
e 13 26
e 13 27
e 13 28
e 13 30
e 13 31
e 13 32
e 13 33
e 13 34
e 13 36
e 13 37
e 13 38
e 13 40
e 13 43
e 13 45
e 13 47
e 13 50
e 13 51
e 13 53
e 13 55
e 13 56
e 13 60
e 13 61
e 13 65
e 13 66
e 13 69
e 13 70
e 13 73
e 13 75
e 13 77
e 13 79
e 13 81
e 13 82
e 13 84
e 13 88
e 13 89
e 13 90
e 13 91
e 13 92
e 13 93
e 13 96
e 13 97
e 13 99
e 13 100
e 14 15
e 14 16
e 14 18
e 14 19
e 14 20
e 14 23
e 14 24
e 14 25
e 14 26
e 14 28
e 14 29
e 14 30
e 14 31
e 14 33
e 14 34
e 14 35
e 14 36
e 14 37
e 14 40
e 14 42
e 14 43
e 14 44
e 14 45
e 14 46
e 14 51
e 14 53
e 14 57
e 14 59
e 14 66
e 14 67
e 14 68
e 14 70
e 14 71
e 14 72
e 14 75
e 14 77
e 14 78
e 14 79
e 14 86
e 14 87
e 14 88
e 14 89
e 14 90
e 14 93
e 14 95
e 15 16
e 15 18
e 15 21
e 15 22
e 15 24
e 15 25
e 15 27
e 15 28
e 15 29
e 15 31
e 15 33
e 15 34
e 15 35
e 15 37
e 15 38
e 15 40
e 15 41
e 15 43
e 15 44
e 15 45
e 15 46
e 15 47
e 15 54
e 15 56
e 15 59
e 15 60
e 15 61
e 15 62
e 15 63
e 15 65
e 15 67
e 15 68
e 15 70
e 15 71
e 15 73
e 15 75
e 15 77
e 15 79
e 15 82
e 15 84
e 15 85
e 15 86
e 15 87
e 15 89
e 15 95
e 15 99
e 15 100
e 16 17
e 16 24
e 16 25
e 16 26
e 16 28
e 16 33
e 16 34
e 16 36
e 16 37
e 16 38
e 16 39
e 16 43
e 16 44
e 16 45
e 16 47
e 16 48
e 16 49
e 16 52
e 16 53
e 16 55
e 16 56
e 16 58
e 16 66
e 16 67
e 16 70
e 16 71
e 16 72
e 16 74
e 16 78
e 16 81
e 16 83
e 16 85
e 16 86
e 16 87
e 16 88
e 16 90
e 16 91
e 16 92
e 16 93
e 16 95
e 16 97
e 16 99
e 16 100
e 17 21
e 17 22
e 17 23
e 17 24
e 17 25
e 17 26
e 17 27
e 17 28
e 17 29
e 17 31
e 17 32
e 17 34
e 17 36
e 17 37
e 17 41
e 17 42
e 17 45
e 17 46
e 17 48
e 17 49
e 17 51
e 17 52
e 17 53
e 17 54
e 17 55
e 17 57
e 17 60
e 17 63
e 17 67
e 17 71
e 17 72
e 17 75
e 17 77
e 17 79
e 17 80
e 17 81
e 17 83
e 17 84
e 17 85
e 17 89
e 17 93
e 17 96
e 17 97
e 17 98
e 17 99
e 18 20
e 18 21
e 18 22
e 18 23
e 18 25
e 18 28
e 18 31
e 18 32
e 18 37
e 18 38
e 18 39
e 18 40
e 18 41
e 18 43
e 18 44
e 18 47
e 18 48
e 18 55
e 18 56
e 18 57
e 18 58
e 18 63
e 18 64
e 18 65
e 18 66
e 18 67
e 18 69
e 18 70
e 18 73
e 18 74
e 18 79
e 18 80
e 18 85
e 18 87
e 18 89
e 18 92
e 18 93
e 18 96
e 18 98
e 18 99
e 18 100
e 19 20
e 19 21
e 19 23
e 19 24
e 19 28
e 19 29
e 19 30
e 19 31
e 19 32
e 19 33
e 19 34
e 19 35
e 19 38
e 19 39
e 19 40
e 19 45
e 19 48
e 19 49
e 19 53
e 19 54
e 19 55
e 19 56
e 19 58
e 19 63
e 19 66
e 19 67
e 19 69
e 19 72
e 19 73
e 19 75
e 19 77
e 19 80
e 19 81
e 19 82
e 19 84
e 19 85
e 19 86
e 19 87
e 19 92
e 19 94
e 19 95
e 19 100
e 20 21
e 20 22
e 20 23
e 20 24
e 20 25
e 20 26
e 20 29
e 20 32
e 20 33
e 20 34
e 20 35
e 20 36
e 20 37
e 20 38
e 20 39
e 20 41
e 20 42
e 20 43
e 20 46
e 20 47
e 20 50
e 20 51
e 20 56
e 20 59
e 20 61
e 20 63
e 20 65
e 20 71
e 20 74
e 20 75
e 20 80
e 20 81
e 20 82
e 20 83
e 20 88
e 20 92
e 20 93
e 20 95
e 20 98
e 20 99
e 20 100
e 21 22
e 21 24
e 21 25
e 21 30
e 21 31
e 21 32
e 21 38
e 21 39
e 21 41
e 21 42
e 21 43
e 21 44
e 21 46
e 21 47
e 21 50
e 21 51
e 21 52
e 21 54
e 21 58
e 21 62
e 21 64
e 21 66
e 21 67
e 21 70
e 21 74
e 21 75
e 21 76
e 21 77
e 21 78
e 21 80
e 21 82
e 21 83
e 21 90
e 21 93
e 21 95
e 21 98
e 21 99
e 22 24
e 22 25
e 22 26
e 22 27
e 22 32
e 22 33
e 22 35
e 22 36
e 22 40
e 22 41
e 22 42
e 22 44
e 22 45
e 22 47
e 22 49
e 22 51
e 22 52
e 22 53
e 22 56
e 22 57
e 22 58
e 22 61
e 22 62
e 22 65
e 22 68
e 22 69
e 22 70
e 22 73
e 22 74
e 22 77
e 22 78
e 22 79
e 22 80
e 22 81
e 22 83
e 22 84
e 22 85
e 22 89
e 22 91
e 22 92
e 22 94
e 22 100
e 23 25
e 23 27
e 23 28
e 23 29
e 23 31
e 23 32
e 23 33
e 23 35
e 23 38
e 23 39
e 23 41
e 23 45
e 23 46
e 23 51
e 23 53
e 23 54
e 23 55
e 23 56
e 23 57
e 23 58
e 23 61
e 23 62
e 23 65
e 23 66
e 23 68
e 23 69
e 23 70
e 23 74
e 23 75
e 23 76
e 23 79
e 23 80
e 23 81
e 23 84
e 23 87
e 23 88
e 23 89
e 23 90
e 23 91
e 23 92
e 23 93
e 23 97
e 23 100
e 24 27
e 24 30
e 24 31
e 24 35
e 24 38
e 24 43
e 24 44
e 24 45
e 24 46
e 24 49
e 24 50
e 24 51
e 24 52
e 24 54
e 24 56
e 24 57
e 24 60
e 24 62
e 24 63
e 24 64
e 24 70
e 24 71
e 24 78
e 24 79
e 24 82
e 24 83
e 24 88
e 24 89
e 24 90
e 24 91
e 24 93
e 24 94
e 24 95
e 24 96
e 24 97
e 25 26
e 25 27
e 25 31
e 25 33
e 25 36
e 25 38
e 25 42
e 25 44
e 25 45
e 25 47
e 25 48
e 25 51
e 25 52
e 25 54
e 25 57
e 25 58
e 25 60
e 25 61
e 25 62
e 25 64
e 25 67
e 25 69
e 25 70
e 25 72
e 25 74
e 25 75
e 25 79
e 25 81
e 25 82
e 25 84
e 25 88
e 25 91
e 25 93
e 25 96
e 26 27
e 26 29
e 26 32
e 26 33
e 26 34
e 26 39
e 26 42
e 26 46
e 26 47
e 26 48
e 26 52
e 26 55
e 26 61
e 26 63
e 26 64
e 26 66
e 26 67
e 26 70
e 26 71
e 26 73
e 26 74
e 26 75
e 26 77
e 26 78
e 26 79
e 26 81
e 26 82
e 26 86
e 26 87
e 26 89
e 26 91
e 26 92
e 26 94
e 26 95
e 26 96
e 26 98
e 26 99
e 27 28
e 27 30
e 27 31
e 27 32
e 27 34
e 27 37
e 27 38
e 27 39
e 27 40
e 27 46
e 27 48
e 27 49
e 27 50
e 27 52
e 27 55
e 27 56
e 27 57
e 27 60
e 27 63
e 27 64
e 27 66
e 27 67
e 27 69
e 27 70
e 27 72
e 27 73
e 27 74
e 27 77
e 27 81
e 27 82
e 27 84
e 27 86
e 27 89
e 27 90
e 27 96
e 27 100
e 28 29
e 28 30
e 28 31
e 28 33
e 28 34
e 28 35
e 28 37
e 28 41
e 28 43
e 28 44
e 28 45
e 28 46
e 28 49
e 28 52
e 28 53
e 28 54
e 28 56
e 28 59
e 28 60
e 28 61
e 28 62
e 28 71
e 28 76
e 28 77
e 28 79
e 28 81
e 28 83
e 28 85
e 28 89
e 28 94
e 28 96
e 28 99
e 29 31
e 29 33
e 29 34
e 29 35
e 29 36
e 29 39
e 29 40
e 29 41
e 29 43
e 29 44
e 29 46
e 29 48
e 29 49
e 29 55
e 29 56
e 29 58
e 29 59
e 29 60
e 29 61
e 29 62
e 29 64
e 29 73
e 29 75
e 29 77
e 29 79
e 29 80
e 29 81
e 29 82
e 29 83
e 29 84
e 29 86
e 29 95
e 29 96
e 29 99
e 29 100
e 30 31
e 30 32
e 30 34
e 30 35
e 30 39
e 30 42
e 30 43
e 30 44
e 30 45
e 30 46
e 30 47
e 30 48
e 30 49
e 30 54
e 30 55
e 30 57
e 30 59
e 30 60
e 30 66
e 30 69
e 30 70
e 30 75
e 30 76
e 30 77
e 30 79
e 30 80
e 30 81
e 30 82
e 30 84
e 30 86
e 30 87
e 30 88
e 30 89
e 30 90
e 30 92
e 30 94
e 30 96
e 30 100
e 31 32
e 31 33
e 31 35
e 31 36
e 31 38
e 31 41
e 31 43
e 31 50
e 31 56
e 31 59
e 31 61
e 31 63
e 31 64
e 31 65
e 31 68
e 31 72
e 31 73
e 31 75
e 31 76
e 31 77
e 31 78
e 31 79
e 31 80
e 31 90
e 31 92
e 31 94
e 31 97
e 31 99
e 32 33
e 32 37
e 32 38
e 32 45
e 32 48
e 32 49
e 32 50
e 32 51
e 32 52
e 32 53
e 32 54
e 32 57
e 32 59
e 32 60
e 32 62
e 32 65
e 32 66
e 32 67
e 32 68
e 32 69
e 32 71
e 32 74
e 32 77
e 32 80
e 32 81
e 32 86
e 32 88
e 32 89
e 32 91
e 32 92
e 32 96
e 32 98
e 32 100
e 33 36
e 33 37
e 33 41
e 33 42
e 33 44
e 33 45
e 33 46
e 33 47
e 33 49
e 33 50
e 33 51
e 33 54
e 33 57
e 33 61
e 33 63
e 33 64
e 33 65
e 33 71
e 33 73
e 33 75
e 33 76
e 33 77
e 33 78
e 33 79
e 33 82
e 33 84
e 33 85
e 33 88
e 33 90
e 33 95
e 33 98
e 34 37
e 34 41
e 34 43
e 34 44
e 34 45
e 34 46
e 34 47
e 34 50
e 34 51
e 34 52
e 34 53
e 34 54
e 34 59
e 34 60
e 34 61
e 34 65
e 34 66
e 34 67
e 34 68
e 34 69
e 34 70
e 34 72
e 34 76
e 34 78
e 34 80
e 34 82
e 34 84
e 34 90
e 34 91
e 34 94
e 35 36
e 35 37
e 35 38
e 35 40
e 35 43
e 35 46
e 35 47
e 35 50
e 35 52
e 35 53
e 35 57
e 35 59
e 35 61
e 35 62
e 35 67
e 35 71
e 35 75
e 35 76
e 35 79
e 35 80
e 35 82
e 35 84
e 35 87
e 35 90
e 35 91
e 35 94
e 35 95
e 35 97
e 35 98
e 35 100
e 36 37
e 36 40
e 36 41
e 36 42
e 36 43
e 36 44
e 36 47
e 36 48
e 36 49
e 36 50
e 36 54
e 36 57
e 36 58
e 36 59
e 36 62
e 36 63
e 36 64
e 36 66
e 36 67
e 36 69
e 36 72
e 36 73
e 36 74
e 36 77
e 36 80
e 36 81
e 36 83
e 36 84
e 36 86
e 36 87
e 36 92
e 36 96
e 36 97
e 37 38
e 37 41
e 37 42
e 37 43
e 37 44
e 37 45
e 37 47
e 37 48
e 37 53
e 37 55
e 37 56
e 37 57
e 37 58
e 37 59
e 37 61
e 37 65
e 37 67
e 37 72
e 37 73
e 37 74
e 37 77
e 37 78
e 37 80
e 37 81
e 37 83
e 37 84
e 37 88
e 37 90
e 37 93
e 37 97
e 38 39
e 38 41
e 38 45
e 38 48
e 38 50
e 38 53
e 38 56
e 38 58
e 38 61
e 38 63
e 38 65
e 38 66
e 38 68
e 38 69
e 38 70
e 38 71
e 38 72
e 38 73
e 38 74
e 38 75
e 38 76
e 38 79
e 38 85
e 38 92
e 38 93
e 38 95
e 39 40
e 39 43
e 39 44
e 39 45
e 39 47
e 39 48
e 39 49
e 39 52
e 39 53
e 39 54
e 39 55
e 39 56
e 39 57
e 39 58
e 39 62
e 39 63
e 39 64
e 39 66
e 39 67
e 39 68
e 39 69
e 39 70
e 39 71
e 39 77
e 39 82
e 39 85
e 39 88
e 39 89
e 39 91
e 39 96
e 39 99
e 40 42
e 40 47
e 40 48
e 40 49
e 40 50
e 40 51
e 40 53
e 40 54
e 40 55
e 40 56
e 40 57
e 40 58
e 40 59
e 40 60
e 40 66
e 40 67
e 40 69
e 40 73
e 40 74
e 40 75
e 40 77
e 40 78
e 40 81
e 40 84
e 40 85
e 40 91
e 40 93
e 40 96
e 40 100
e 41 43
e 41 48
e 41 51
e 41 53
e 41 54
e 41 57
e 41 61
e 41 62
e 41 63
e 41 64
e 41 65
e 41 66
e 41 67
e 41 69
e 41 74
e 41 76
e 41 77
e 41 79
e 41 80
e 41 83
e 41 84
e 41 86
e 41 87
e 41 88
e 41 89
e 41 92
e 41 94
e 41 96
e 41 97
e 41 99
e 41 100
e 42 43
e 42 44
e 42 45
e 42 46
e 42 47
e 42 48
e 42 50
e 42 51
e 42 52
e 42 54
e 42 55
e 42 58
e 42 59
e 42 60
e 42 62
e 42 64
e 42 65
e 42 68
e 42 69
e 42 71
e 42 72
e 42 73
e 42 79
e 42 82
e 42 87
e 42 89
e 42 91
e 42 96
e 42 98
e 42 100
e 43 44
e 43 45
e 43 48
e 43 49
e 43 51
e 43 52
e 43 58
e 43 59
e 43 60
e 43 61
e 43 64
e 43 76
e 43 78
e 43 79
e 43 80
e 43 82
e 43 84
e 43 85
e 43 86
e 43 87
e 43 94
e 43 96
e 43 97
e 43 98
e 44 45
e 44 48
e 44 49
e 44 52
e 44 54
e 44 56
e 44 57
e 44 60
e 44 61
e 44 62
e 44 63
e 44 67
e 44 69
e 44 71
e 44 73
e 44 80
e 44 81
e 44 83
e 44 85
e 44 86
e 44 90
e 44 91
e 44 95
e 44 99
e 44 100
e 45 47
e 45 49
e 45 50
e 45 52
e 45 54
e 45 56
e 45 58
e 45 61
e 45 62
e 45 63
e 45 64
e 45 69
e 45 70
e 45 71
e 45 75
e 45 76
e 45 78
e 45 84
e 45 88
e 45 89
e 45 91
e 45 92
e 45 95
e 45 99
e 46 49
e 46 50
e 46 51
e 46 52
e 46 54
e 46 55
e 46 56
e 46 58
e 46 59
e 46 60
e 46 65
e 46 66
e 46 69
e 46 72
e 46 73
e 46 75
e 46 80
e 46 81
e 46 82
e 46 83
e 46 89
e 46 90
e 46 92
e 46 94
e 46 99
e 46 100
e 47 49
e 47 51
e 47 53
e 47 57
e 47 63
e 47 64
e 47 66
e 47 67
e 47 70
e 47 71
e 47 73
e 47 78
e 47 80
e 47 82
e 47 83
e 47 84
e 47 86
e 47 89
e 47 93
e 47 95
e 47 97
e 47 98
e 47 100
e 48 50
e 48 51
e 48 53
e 48 55
e 48 56
e 48 58
e 48 62
e 48 64
e 48 66
e 48 67
e 48 68
e 48 70
e 48 71
e 48 74
e 48 76
e 48 77
e 48 78
e 48 79
e 48 83
e 48 86
e 48 87
e 48 91
e 48 92
e 48 93
e 49 50
e 49 53
e 49 55
e 49 57
e 49 60
e 49 61
e 49 62
e 49 65
e 49 69
e 49 71
e 49 73
e 49 77
e 49 81
e 49 82
e 49 83
e 49 86
e 49 87
e 49 88
e 49 90
e 49 91
e 49 92
e 49 93
e 49 98
e 50 51
e 50 54
e 50 55
e 50 59
e 50 60
e 50 61
e 50 63
e 50 65
e 50 66
e 50 67
e 50 68
e 50 73
e 50 74
e 50 75
e 50 76
e 50 79
e 50 81
e 50 82
e 50 83
e 50 84
e 50 86
e 50 87
e 50 89
e 50 91
e 50 97
e 50 99
e 50 100
e 51 53
e 51 56
e 51 57
e 51 58
e 51 59
e 51 61
e 51 66
e 51 67
e 51 68
e 51 69
e 51 70
e 51 72
e 51 73
e 51 74
e 51 78
e 51 79
e 51 80
e 51 82
e 51 86
e 51 87
e 51 88
e 51 90
e 52 55
e 52 60
e 52 63
e 52 65
e 52 69
e 52 71
e 52 72
e 52 76
e 52 80
e 52 83
e 52 85
e 52 86
e 52 87
e 52 88
e 52 89
e 52 92
e 52 93
e 52 94
e 52 95
e 52 96
e 52 97
e 52 99
e 52 100
e 53 55
e 53 56
e 53 62
e 53 63
e 53 64
e 53 65
e 53 66
e 53 70
e 53 73
e 53 75
e 53 76
e 53 79
e 53 82
e 53 83
e 53 85
e 53 87
e 53 90
e 53 92
e 53 94
e 53 97
e 53 100
e 54 58
e 54 60
e 54 61
e 54 67
e 54 68
e 54 70
e 54 71
e 54 72
e 54 74
e 54 77
e 54 78
e 54 81
e 54 90
e 54 91
e 54 92
e 54 93
e 54 95
e 54 96
e 54 97
e 54 98
e 55 58
e 55 60
e 55 65
e 55 67
e 55 68
e 55 69
e 55 71
e 55 74
e 55 75
e 55 76
e 55 79
e 55 80
e 55 81
e 55 83
e 55 84
e 55 85
e 55 87
e 55 92
e 55 93
e 55 95
e 55 96
e 55 98
e 55 99
e 56 57
e 56 64
e 56 69
e 56 70
e 56 72
e 56 73
e 56 75
e 56 78
e 56 80
e 56 82
e 56 85
e 56 88
e 56 89
e 56 95
e 56 97
e 56 100
e 57 58
e 57 59
e 57 60
e 57 63
e 57 65
e 57 68
e 57 69
e 57 70
e 57 72
e 57 73
e 57 75
e 57 78
e 57 80
e 57 81
e 57 84
e 57 94
e 57 95
e 57 98
e 57 100
e 58 60
e 58 62
e 58 65
e 58 66
e 58 69
e 58 71
e 58 74
e 58 75
e 58 76
e 58 82
e 58 83
e 58 84
e 58 89
e 58 90
e 58 91
e 58 95
e 58 98
e 58 100
e 59 60
e 59 61
e 59 62
e 59 63
e 59 65
e 59 66
e 59 68
e 59 71
e 59 72
e 59 76
e 59 78
e 59 80
e 59 81
e 59 83
e 59 88
e 59 89
e 59 91
e 59 92
e 59 93
e 59 94
e 59 96
e 59 97
e 60 62
e 60 69
e 60 72
e 60 73
e 60 74
e 60 75
e 60 76
e 60 79
e 60 83
e 60 85
e 60 86
e 60 94
e 60 95
e 60 97
e 61 62
e 61 63
e 61 64
e 61 66
e 61 68
e 61 70
e 61 71
e 61 73
e 61 76
e 61 78
e 61 79
e 61 84
e 61 86
e 61 87
e 61 95
e 61 96
e 61 98
e 61 100
e 62 65
e 62 68
e 62 69
e 62 73
e 62 76
e 62 77
e 62 78
e 62 80
e 62 82
e 62 84
e 62 85
e 62 86
e 62 94
e 62 96
e 62 99
e 63 64
e 63 66
e 63 68
e 63 73
e 63 75
e 63 79
e 63 80
e 63 85
e 63 86
e 63 87
e 63 91
e 63 92
e 63 93
e 63 94
e 63 95
e 63 99
e 64 65
e 64 67
e 64 68
e 64 69
e 64 71
e 64 75
e 64 76
e 64 78
e 64 79
e 64 80
e 64 83
e 64 84
e 64 87
e 64 89
e 64 91
e 64 97
e 64 98
e 65 73
e 65 74
e 65 75
e 65 77
e 65 78
e 65 80
e 65 85
e 65 92
e 65 94
e 65 95
e 65 96
e 65 97
e 65 98
e 65 100
e 66 68
e 66 71
e 66 72
e 66 74
e 66 85
e 66 86
e 66 88
e 66 89
e 66 90
e 66 91
e 66 93
e 66 95
e 66 97
e 67 68
e 67 70
e 67 75
e 67 80
e 67 84
e 67 87
e 67 89
e 67 90
e 67 94
e 67 95
e 67 96
e 67 98
e 68 70
e 68 71
e 68 73
e 68 74
e 68 75
e 68 79
e 68 82
e 68 83
e 68 84
e 68 86
e 68 89
e 68 93
e 68 94
e 68 97
e 68 98
e 68 100
e 69 70
e 69 71
e 69 72
e 69 75
e 69 80
e 69 81
e 69 82
e 69 87
e 69 88
e 69 96
e 69 99
e 70 72
e 70 73
e 70 74
e 70 76
e 70 78
e 70 82
e 70 83
e 70 86
e 70 88
e 70 94
e 71 72
e 71 73
e 71 78
e 71 79
e 71 81
e 71 82
e 71 86
e 71 89
e 71 93
e 71 94
e 71 97
e 72 74
e 72 75
e 72 77
e 72 79
e 72 82
e 72 83
e 72 84
e 72 88
e 72 89
e 72 90
e 72 91
e 72 93
e 72 97
e 72 99
e 72 100
e 73 76
e 73 81
e 73 83
e 73 85
e 73 86
e 73 94
e 74 77
e 74 82
e 74 87
e 74 90
e 74 91
e 74 92
e 74 93
e 74 98
e 74 99
e 75 78
e 75 79
e 75 81
e 75 93
e 75 94
e 75 97
e 75 98
e 76 77
e 76 78
e 76 81
e 76 82
e 76 83
e 76 84
e 76 85
e 76 87
e 76 89
e 76 93
e 76 96
e 76 100
e 77 86
e 77 87
e 77 88
e 77 97
e 77 99
e 77 100
e 78 79
e 78 81
e 78 85
e 78 88
e 78 94
e 78 95
e 78 96
e 78 97
e 79 81
e 79 83
e 79 92
e 79 94
e 79 95
e 79 96
e 80 85
e 80 86
e 80 89
e 80 94
e 80 98
e 81 86
e 81 88
e 81 89
e 81 90
e 81 91
e 81 92
e 81 95
e 81 97
e 81 99
e 82 84
e 82 88
e 82 91
e 82 93
e 82 94
e 83 85
e 83 87
e 83 88
e 83 95
e 83 98
e 83 99
e 83 100
e 84 94
e 84 95
e 85 86
e 85 88
e 85 90
e 85 91
e 85 92
e 85 93
e 85 95
e 85 97
e 85 99
e 85 100
e 86 87
e 86 89
e 86 90
e 86 93
e 86 95
e 86 96
e 86 97
e 87 88
e 87 90
e 87 92
e 87 93
e 87 97
e 88 89
e 88 92
e 88 96
e 89 90
e 89 98
e 90 91
e 90 93
e 90 98
e 90 99
e 90 100
e 91 92
e 91 93
e 91 96
e 91 97
e 91 98
e 91 99
e 92 93
e 92 98
e 93 98
e 94 98
e 95 97
e 96 98
e 97 98
n 4 1
n 7 1
n 17 1
n 18 1
n 19 1
n 20 1
n 23 1
n 28 1
n 29 1
n 35 1
n 36 1
n 38 1
n 41 1
n 42 1
n 44 1
n 52 1
n 55 1
n 63 1
n 69 1
n 72 1
n 74 1
n 77 1
n 78 2
n 83 1
n 87 1
n 89 1
n 90 1
n 91 1
n 92 1
n 93 1
